702	784
706	717
753	716
757	695
788	675
792	654
839	653
870	633
874	612
905	592
952	591
956	570
1034	549
1139	529
1186	528
1217	508
1264	507
1295	487
1342	486
1373	466
1494	465
1615	464
1646	444
1767	443
